3574
3
53, 229, 241, 19, 43, 116, 61, 222, 142, 240, 173, 230, 135, 257, 92, 122, 155, 226
86, 22, 27, 26, 53, 94, 14, 36, 57, 77, 60, 10, 28, 12, 26, 44, 70, 26
2, 3, 3, 2, 3, 1, 2, 3, 1, 3, 2, 3, 3, 3, 2, 3, 1, 3